20	5
0	10	1	9	10	2	7	6	4	5	3	8
1	4	20	15	18	17
2	7	14	19	15	12	16	20	18
3	1	12
4	2	13	14
5	6	11	13	14	15	19	17
6	5	16	19	18	12	11
7	4	13	17	19	11
8	3	20	11	14
9	5	20	14	18	11	13
10	5	16	20	18	12	17
11	1	21
12	1	21
13	1	21
14	1	21
15	1	21
16	1	21
17	1	21
18	1	21
19	1	21
20	1	21
21	0
0	0	0	0	0	0	0
1	2	1	1	5	1	1
2	3	0	3	2	0	0
3	4	0	1	2	0	4
4	7	0	3	2	5	2
5	5	2	1	3	4	5
6	4	1	5	3	2	4
7	2	0	0	3	0	1
8	7	1	0	2	2	3
9	4	3	5	3	1	5
10	5	5	5	3	5	3
11	10	0	2	0	0	4
12	1	5	1	4	5	3
13	3	0	4	0	0	0
14	6	0	1	1	0	0
15	9	5	3	5	1	5
16	4	1	1	0	3	0
17	5	2	2	5	2	3
18	1	2	4	2	3	4
19	6	1	3	4	4	2
20	9	1	0	0	4	0
21	0	0	0	0	0	0
5	5	5	5	5
